SECTION Graph
Nodes 200
Edges 370
E 1 21 1236
E 1 2 116
E 2 22 1236
E 2 3 874
E 3 23 1236
E 3 4 944
E 4 24 1236
E 4 5 305
E 5 25 1236
E 5 6 753
E 6 26 1236
E 6 7 418
E 7 27 1236
E 7 8 1080
E 8 28 1236
E 8 9 152
E 9 29 1236
E 9 10 1402
E 10 30 1236
E 10 11 1377
E 11 31 1236
E 11 12 291
E 12 32 1236
E 12 13 1222
E 13 33 1236
E 13 14 1428
E 14 34 1236
E 14 15 1316
E 15 35 1236
E 15 16 638
E 16 36 1236
E 16 17 580
E 17 37 1236
E 17 18 1317
E 18 38 1236
E 18 19 126
E 19 39 1236
E 19 20 1096
E 20 40 1236
E 21 41 809
E 21 22 116
E 22 42 809
E 22 23 874
E 23 43 809
E 23 24 944
E 24 44 809
E 24 25 305
E 25 45 809
E 25 26 753
E 26 46 809
E 26 27 418
E 27 47 809
E 27 28 1080
E 28 48 809
E 28 29 152
E 29 49 809
E 29 30 1402
E 30 50 809
E 30 31 1377
E 31 51 809
E 31 32 291
E 32 52 809
E 32 33 1222
E 33 53 809
E 33 34 1428
E 34 54 809
E 34 35 1316
E 35 55 809
E 35 36 638
E 36 56 809
E 36 37 580
E 37 57 809
E 37 38 1317
E 38 58 809
E 38 39 126
E 39 59 809
E 39 40 1096
E 40 60 809
E 41 61 898
E 41 42 116
E 42 62 898
E 42 43 874
E 43 63 898
E 43 44 944
E 44 64 898
E 44 45 305
E 45 65 898
E 45 46 753
E 46 66 898
E 46 47 418
E 47 67 898
E 47 48 1080
E 48 68 898
E 48 49 152
E 49 69 898
E 49 50 1402
E 50 70 898
E 50 51 1377
E 51 71 898
E 51 52 291
E 52 72 898
E 52 53 1222
E 53 73 898
E 53 54 1428
E 54 74 898
E 54 55 1316
E 55 75 898
E 55 56 638
E 56 76 898
E 56 57 580
E 57 77 898
E 57 58 1317
E 58 78 898
E 58 59 126
E 59 79 898
E 59 60 1096
E 60 80 898
E 61 81 1060
E 61 62 116
E 62 82 1060
E 62 63 874
E 63 83 1060
E 63 64 944
E 64 84 1060
E 64 65 305
E 65 85 1060
E 65 66 753
E 66 86 1060
E 66 67 418
E 67 87 1060
E 67 68 1080
E 68 88 1060
E 68 69 152
E 69 89 1060
E 69 70 1402
E 70 90 1060
E 70 71 1377
E 71 91 1060
E 71 72 291
E 72 92 1060
E 72 73 1222
E 73 93 1060
E 73 74 1428
E 74 94 1060
E 74 75 1316
E 75 95 1060
E 75 76 638
E 76 96 1060
E 76 77 580
E 77 97 1060
E 77 78 1317
E 78 98 1060
E 78 79 126
E 79 99 1060
E 79 80 1096
E 80 100 1060
E 81 101 103
E 81 82 116
E 82 102 103
E 82 83 874
E 83 103 103
E 83 84 944
E 84 104 103
E 84 85 305
E 85 105 103
E 85 86 753
E 86 106 103
E 86 87 418
E 87 107 103
E 87 88 1080
E 88 108 103
E 88 89 152
E 89 109 103
E 89 90 1402
E 90 110 103
E 90 91 1377
E 91 111 103
E 91 92 291
E 92 112 103
E 92 93 1222
E 93 113 103
E 93 94 1428
E 94 114 103
E 94 95 1316
E 95 115 103
E 95 96 638
E 96 116 103
E 96 97 580
E 97 117 103
E 97 98 1317
E 98 118 103
E 98 99 126
E 99 119 103
E 99 100 1096
E 100 120 103
E 101 121 800
E 101 102 116
E 102 122 800
E 102 103 874
E 103 123 800
E 103 104 944
E 104 124 800
E 104 105 305
E 105 125 800
E 105 106 753
E 106 126 800
E 106 107 418
E 107 127 800
E 107 108 1080
E 108 128 800
E 108 109 152
E 109 129 800
E 109 110 1402
E 110 130 800
E 110 111 1377
E 111 131 800
E 111 112 291
E 112 132 800
E 112 113 1222
E 113 133 800
E 113 114 1428
E 114 134 800
E 114 115 1316
E 115 135 800
E 115 116 638
E 116 136 800
E 116 117 580
E 117 137 800
E 117 118 1317
E 118 138 800
E 118 119 126
E 119 139 800
E 119 120 1096
E 120 140 800
E 121 141 1475
E 121 122 116
E 122 142 1475
E 122 123 874
E 123 143 1475
E 123 124 944
E 124 144 1475
E 124 125 305
E 125 145 1475
E 125 126 753
E 126 146 1475
E 126 127 418
E 127 147 1475
E 127 128 1080
E 128 148 1475
E 128 129 152
E 129 149 1475
E 129 130 1402
E 130 150 1475
E 130 131 1377
E 131 151 1475
E 131 132 291
E 132 152 1475
E 132 133 1222
E 133 153 1475
E 133 134 1428
E 134 154 1475
E 134 135 1316
E 135 155 1475
E 135 136 638
E 136 156 1475
E 136 137 580
E 137 157 1475
E 137 138 1317
E 138 158 1475
E 138 139 126
E 139 159 1475
E 139 140 1096
E 140 160 1475
E 141 161 1225
E 141 142 116
E 142 162 1225
E 142 143 874
E 143 163 1225
E 143 144 944
E 144 164 1225
E 144 145 305
E 145 165 1225
E 145 146 753
E 146 166 1225
E 146 147 418
E 147 167 1225
E 147 148 1080
E 148 168 1225
E 148 149 152
E 149 169 1225
E 149 150 1402
E 150 170 1225
E 150 151 1377
E 151 171 1225
E 151 152 291
E 152 172 1225
E 152 153 1222
E 153 173 1225
E 153 154 1428
E 154 174 1225
E 154 155 1316
E 155 175 1225
E 155 156 638
E 156 176 1225
E 156 157 580
E 157 177 1225
E 157 158 1317
E 158 178 1225
E 158 159 126
E 159 179 1225
E 159 160 1096
E 160 180 1225
E 161 181 636
E 161 162 116
E 162 182 636
E 162 163 874
E 163 183 636
E 163 164 944
E 164 184 636
E 164 165 305
E 165 185 636
E 165 166 753
E 166 186 636
E 166 167 418
E 167 187 636
E 167 168 1080
E 168 188 636
E 168 169 152
E 169 189 636
E 169 170 1402
E 170 190 636
E 170 171 1377
E 171 191 636
E 171 172 291
E 172 192 636
E 172 173 1222
E 173 193 636
E 173 174 1428
E 174 194 636
E 174 175 1316
E 175 195 636
E 175 176 638
E 176 196 636
E 176 177 580
E 177 197 636
E 177 178 1317
E 178 198 636
E 178 179 126
E 179 199 636
E 179 180 1096
E 180 200 636
E 181 182 116
E 182 183 874
E 183 184 944
E 184 185 305
E 185 186 753
E 186 187 418
E 187 188 1080
E 188 189 152
E 189 190 1402
E 190 191 1377
E 191 192 291
E 192 193 1222
E 193 194 1428
E 194 195 1316
E 195 196 638
E 196 197 580
E 197 198 1317
E 198 199 126
E 199 200 1096
END

SECTION Terminals
Terminals 20
T 56
T 177
T 91
T 138
T 14
T 137
T 16
T 76
T 186
T 154
T 159
T 179
T 110
T 33
T 69
T 115
T 141
T 99
T 93
T 82
END

SECTION Tree Decomposition
s td 190 11 200
b 1 1 2 21
b 2 19 20 40
b 3 161 181 182
b 4 180 199 200
b 5 2 3 21 22
b 6 18 19 39 40
b 7 3 4 24 45 66 87 108 129 150 171 192
b 8 4 5 24 45 66 87 108 129 150 171 192
b 9 5 24 26 45 66 87 108 129 150 171 192
b 10 5 7 26 45 66 87 108 129 150 171 192
b 11 5 6 7 26
b 12 7 26 45 47 66 87 108 129 150 171 192
b 13 7 26 28 47 66 87 108 129 150 171 192
b 14 7 9 28 47 66 87 108 129 150 171 192
b 15 7 8 9 28
b 16 9 28 47 66 68 87 108 129 150 171 192
b 17 9 28 47 49 68 87 108 129 150 171 192
b 18 9 28 30 49 68 87 108 129 150 171 192
b 19 9 11 30 49 68 87 108 129 150 171 192
b 20 9 10 11 30
b 21 11 30 49 68 87 89 108 129 150 171 192
b 22 11 30 49 68 70 89 108 129 150 171 192
b 23 11 30 49 51 70 89 108 129 150 171 192
b 24 11 30 32 51 70 89 108 129 150 171 192
b 25 11 13 32 51 70 89 108 129 150 171 192
b 26 11 12 13 32
b 27 13 32 51 70 89 108 110 129 150 171 192
b 28 13 32 51 70 89 91 110 129 150 171 192
b 29 13 32 51 70 72 91 110 129 150 171 192
b 30 13 32 51 53 72 91 110 129 150 171 192
b 31 13 32 34 53 72 91 110 129 150 171 192
b 32 13 15 34 53 72 91 110 129 150 171 192
b 33 13 14 15 34
b 34 15 34 53 72 91 110 129 131 150 171 192
b 35 15 34 53 72 91 110 112 131 150 171 192
b 36 15 34 53 72 91 93 112 131 150 171 192
b 37 15 34 53 72 74 93 112 131 150 171 192
b 38 15 34 53 55 74 93 112 131 150 171 192
b 39 15 34 36 55 74 93 112 131 150 171 192
b 40 15 17 36 55 74 93 112 131 150 171 192
b 41 15 16 17 36
b 42 17 36 55 74 93 112 131 150 152 171 192
b 43 17 36 55 74 93 112 131 133 152 171 192
b 44 17 36 55 74 93 112 114 133 152 171 192
b 45 17 36 55 74 93 95 114 133 152 171 192
b 46 17 36 55 74 76 95 114 133 152 171 192
b 47 17 36 55 57 76 95 114 133 152 171 192
b 48 17 36 38 57 76 95 114 133 152 171 192
b 49 17 38 57 76 95 114 133 152 171 173 192
b 50 17 38 57 76 95 114 133 152 154 173 192
b 51 17 38 57 76 95 114 133 135 154 173 192
b 52 17 38 57 76 95 114 116 135 154 173 192
b 53 17 38 57 76 95 97 116 135 154 173 192
b 54 17 38 57 76 78 97 116 135 154 173 192
b 55 17 38 57 59 78 97 116 135 154 173 192
b 56 17 38 59 78 80 97 116 135 154 173 192
b 57 17 38 40 59 80
b 58 17 38 39 40 59
b 59 17 18 38 39 40
b 60 40 59 60 80
b 61 59 78 80 97 99 116 135 154 173 192
b 62 59 78 79 80 99
b 63 78 80 97 99 116 118 135 154 173 192
b 64 78 97 98 99 118
b 65 80 97 99 116 118 135 137 154 173 192
b 66 80 99 116 118 135 137 154 156 173 192
b 67 80 99 118 135 137 154 156 173 175 192
b 68 80 99 118 137 154 156 173 175 192 196
b 69 80 99 118 137 156 175 177 196
b 70 80 99 118 137 156 158 177 196
b 71 80 99 118 137 139 158 177 196
b 72 80 99 118 139 140 158 177 196
b 73 80 99 118 119 139 140
b 74 80 99 100 119 140
b 75 100 119 120 140
b 76 139 140 158 177 196 198
b 77 139 140 158 177 179 198
b 78 139 140 158 159 179 198
b 79 140 159 160 179 198
b 80 160 179 198 199
b 81 158 177 178 179 198
b 82 177 196 197 198
b 83 118 137 138 139 158
b 84 137 156 157 158 177
b 85 156 175 176 177 196
b 86 154 173 175 192 194 196
b 87 154 173 174 175 194
b 88 173 192 193 194
b 89 175 194 195 196
b 90 135 154 155 156 175
b 91 116 135 136 137 156
b 92 97 116 117 118 137
b 93 38 57 58 59 78
b 94 57 76 77 78 97
b 95 76 95 96 97 116
b 96 95 114 115 116 135
b 97 114 133 134 135 154
b 98 133 152 153 154 173
b 99 152 171 172 173 192
b 100 17 36 37 38 57
b 101 36 55 56 57 76
b 102 55 74 75 76 95
b 103 74 93 94 95 114
b 104 93 112 113 114 133
b 105 112 131 132 133 152
b 106 131 150 151 152 171
b 107 15 34 35 36 55
b 108 34 53 54 55 74
b 109 53 72 73 74 93
b 110 72 91 92 93 112
b 111 91 110 111 112 131
b 112 110 129 130 131 150
b 113 13 32 33 34 53
b 114 32 51 52 53 72
b 115 51 70 71 72 91
b 116 70 89 90 91 110
b 117 89 108 109 110 129
b 118 11 30 31 32 51
b 119 30 49 50 51 70
b 120 49 68 69 70 89
b 121 68 87 88 89 108
b 122 9 28 29 30 49
b 123 28 47 48 49 68
b 124 47 66 67 68 87
b 125 7 26 27 28 47
b 126 26 45 46 47 66
b 127 5 24 25 26 45
b 128 3 24 45 66 87 108 129 150 171 190 192
b 129 3 24 45 66 87 108 129 150 169 171 190
b 130 3 24 45 66 87 108 129 150 169 188 190
b 131 3 24 45 66 87 108 129 148 150 169 188
b 132 3 24 45 66 87 108 127 129 148 169 188
b 133 3 24 45 66 87 106 108 127 148 169 188
b 134 3 24 45 66 85 87 106 127 148 169 188
b 135 3 24 45 64 66 85 106 127 148 169 188
b 136 3 24 43 45 64 85 106 127 148 169 188
b 137 3 24 43 64 85 106 127 148 167 169 188
b 138 3 24 43 64 85 106 127 146 148 167 188
b 139 3 24 43 64 85 106 125 127 146 167 188
b 140 3 24 43 64 85 104 106 125 146 167 188
b 141 3 24 43 64 83 85 104 125 146 167 188
b 142 3 24 43 62 64 83 104 125 146 167 188
b 143 3 24 43 62 81 83 104 125 146 167 188
b 144 3 24 41 43 62 81
b 145 3 22 24 41 43 62
b 146 3 21 22 41
b 147 3 22 23 24 43
b 148 22 41 42 43 62
b 149 41 61 62 81
b 150 62 81 83 102 104 125 146 167 188
b 151 62 81 82 83 102
b 152 81 83 102 104 123 125 146 167 188
b 153 81 102 104 123 125 144 146 167 188
b 154 81 102 123 125 144 146 165 167 188
b 155 81 102 123 144 146 165 167 186 188
b 156 81 102 123 144 165 184 186
b 157 81 102 123 144 163 165 184
b 158 81 102 123 142 144 163 184
b 159 81 102 123 141 142 163 184
b 160 81 102 121 123 141 142
b 161 81 101 102 121
b 162 102 121 122 123 142
b 163 141 142 163 182 184
b 164 141 142 162 163 182
b 165 163 182 183 184
b 166 123 142 143 144 163
b 167 144 163 164 165 184
b 168 165 184 185 186
b 169 146 165 166 167 186
b 170 167 186 187 188
b 171 125 144 145 146 165
b 172 104 123 124 125 144
b 173 83 102 103 104 123
b 174 43 62 63 64 83
b 175 64 83 84 85 104
b 176 85 104 105 106 125
b 177 106 125 126 127 146
b 178 127 146 147 148 167
b 179 148 167 168 169 188
b 180 24 43 44 45 64
b 181 45 64 65 66 85
b 182 66 85 86 87 106
b 183 87 106 107 108 127
b 184 108 127 128 129 148
b 185 129 148 149 150 169
b 186 169 188 189 190
b 187 150 169 170 171 190
b 188 171 190 191 192
b 189 141 161 162 182
b 190 160 179 180 199
1 5
2 6
3 189
4 190
5 146
6 59
7 8
7 128
8 9
9 10
9 127
10 11
10 12
12 13
12 126
13 14
13 125
14 15
14 16
16 17
16 124
17 18
17 123
18 19
18 122
19 20
19 21
21 22
21 121
22 23
22 120
23 24
23 119
24 25
24 118
25 26
25 27
27 28
27 117
28 29
28 116
29 30
29 115
30 31
30 114
31 32
31 113
32 33
32 34
34 35
34 112
35 36
35 111
36 37
36 110
37 38
37 109
38 39
38 108
39 40
39 107
40 41
40 42
42 43
42 106
43 44
43 105
44 45
44 104
45 46
45 103
46 47
46 102
47 48
47 101
48 49
48 100
49 50
49 99
50 51
50 98
51 52
51 97
52 53
52 96
53 54
53 95
54 55
54 94
55 56
55 93
56 57
56 61
57 58
57 60
58 59
61 62
61 63
63 64
63 65
65 66
65 92
66 67
66 91
67 68
67 90
68 69
68 86
69 70
69 85
70 71
70 84
71 72
71 83
72 73
72 76
73 74
74 75
76 77
76 82
77 78
77 81
78 79
79 80
80 190
86 87
86 88
86 89
128 129
128 188
129 130
129 187
130 131
130 186
131 132
131 185
132 133
132 184
133 134
133 183
134 135
134 182
135 136
135 181
136 137
136 180
137 138
137 179
138 139
138 178
139 140
139 177
140 141
140 176
141 142
141 175
142 143
142 174
143 144
143 150
144 145
144 149
145 146
145 147
145 148
150 151
150 152
152 153
152 173
153 154
153 172
154 155
154 171
155 156
155 169
155 170
156 157
156 168
157 158
157 167
158 159
158 166
159 160
159 163
160 161
160 162
163 164
163 165
164 189
END

EOF
